50, 2476627
100049, 957
100093, 948
100050, 57
100083, 85
100035, 836
100089, 736
100090, 670
100046, 309
100057, 606
100092, 607
100073, 582
100049, 159
100022, 431
100032, 394
100070, 724
100016, 995
100091, 950
100027, 545
100092, 445
100031, 269
100096, 36
100071, 28
100050, 465
100052, 319
100065, 381
100059, 892
100031, 526
100020, 561
100051, 237
100094, 24
100062, 326
100007, 137
100082, 511
100073, 999
100091, 675
100019, 182
100075, 894
100005, 797
100065, 735
100027, 907
100022, 763
100088, 790
100010, 354
100052, 981
100086, 962
100024, 162
100021, 755
100088, 716
100042, 462
100072, 531
